3 
4  46 
5  00 15 34 49 
6  13 28 43 58 
7  13 28 43 58 
8  13 28 43 58 
9  13 28 43 58 
10  13 28 43 58 
11  13 28 43 58 
12  13 28 43 58 
13  13 28 43 58 
14  13 28 43 58 
15  13 28 43 58 
16  13 28 43 58 
17  13 28 43 58 
18  13 29 44 58 
19  13 28 43 58 
20  13 28 43 58 
21  13 28 43 58 
22  13 28 46 
23  01 19 
0 
